#######################################################################
#
#                 Cambridge Crystallographic Data Centre
#                                CCDC
#
#######################################################################
#
# If this CIF has been generated from an entry in the Cambridge
# Structural Database, then it will include bibliographic, chemical,
# crystal, experimental, refinement or atomic coordinate data resulting
# from the CCDC's data processing and validation procedures.
#
#######################################################################
data_CSD_CIF_ABAGAO
_audit_creation_date 2016-11-22
_audit_creation_method CSD-ConQuest-V1
_database_code_CSD ABAGAO
_database_code_depnum_ccdc_archive 'CCDC 1498689'
_chemical_formula_sum 'C14 H15 Cu1 N3 O5'
_chemical_formula_moiety
;
(C14 H13 Cu1 N3 O4)n,H2 O1
;
_journal_coden_Cambridge 580
_journal_volume 119
_journal_year 2016
_journal_page_first 563
_journal_name_full 'Polyhedron '
loop_
_symmetry_equiv_pos_site_id
_symmetry_equiv_pos_as_xyz
1 x,y,z
2 1/2-x,-y,1/2+z
3 -x,1/2+y,1/2-z
4 1/2+x,1/2-y,-z
5 -x,-y,-z
6 -1/2+x,y,-1/2-z
7 x,-1/2-y,-1/2+z
8 -1/2-x,-1/2+y,z
_cell_length_a 18.5834(8)
_cell_length_b 8.3215(4)
_cell_length_c 19.1366(7)
_cell_angle_alpha 90
_cell_angle_beta 90
_cell_angle_gamma 90
_cell_formula_units_Z 8
loop_
_atom_type_symbol
_atom_type_radius_bond
C 0.68
H 0.23
Cu 1.32
N 0.68
O 0.68
loop_
_geom_bond_atom_site_label_1
_geom_bond_atom_site_label_2
_geom_bond_distance
_geom_bond_site_symmetry_1
_geom_bond_site_symmetry_2
Cu1 O1 2.359 1_555 1_555
O1 C1 1.259 1_555 1_555
O2 Cu1 1.963 1_555 1_555
O3 C1 1.243 1_555 1_555
O4 C6 1.238 1_555 1_555
N1 Cu1 2.004 1_555 1_555
N2 Cu1 1.999 1_555 1_555
N3 Cu1 2.004 1_555 1_555
H1 N3 0.980 1_555 1_555
C1 C6 1.559 1_555 1_555
C2 N3 1.476 1_555 1_555
H2 C2 0.970 1_555 1_555
H3 C2 0.971 1_555 1_555
C3 N1 1.354 1_555 1_555
C4 N2 1.353 1_555 1_555
C5 N1 1.338 1_555 1_555
H4 C5 0.930 1_555 1_555
C6 O2 1.274 1_555 1_555
C7 N2 1.352 1_555 1_555
H5 C7 0.930 1_555 1_555
C8 C5 1.379 1_555 1_555
H6 C8 0.931 1_555 1_555
C9 C8 1.383 1_555 1_555
H7 C9 0.931 1_555 1_555
C10 N3 1.473 1_555 1_555
H8 C10 0.970 1_555 1_555
H9 C10 0.970 1_555 1_555
C11 C7 1.386 1_555 1_555
H10 C11 0.930 1_555 1_555
C12 C3 1.389 1_555 1_555
H11 C12 0.930 1_555 1_555
C13 C4 1.384 1_555 1_555
H12 C13 0.931 1_555 1_555
C14 C11 1.377 1_555 1_555
H13 C14 0.931 1_555 1_555
O5 H14 0.848 1_555 1_555
H15 O5 0.851 1_555 1_555
Cu1B O4 2.395 1_555 1_555
O4B Cu1 2.395 1_555 1_555
C2 C3 1.506 1_555 1_555
C4 C10 1.507 1_555 1_555
C9 C12 1.376 1_555 1_555
C13 C14 1.385 1_555 1_555
#END
loop_
_publ_author_name
"A.Timothy Royappa"
"A.D.Royappa"
"R.F.Moral"
"A.L.Rheingold"
"R.J.Papoular"
"D.M.Blum"
"T.Q.Duong"
"J.R.Stepherson"
"O.D.Vu"
"Banghao Chen"
"M.R.Suchomel"
"J.A.Golen"
"G.Andre"
"N.Kourkoumelis"
"A.D.Mercer"
"A.M.Pekarek"
"D.C.Kelly"
_chemical_name_systematic
;
catena-[(\m-ethanedioato)-(1-(pyridin-2-yl)-N-((pyridin-2-yl)methyl)methanamin
e)-copper(ii) monohydrate]
;
_chemical_name_common
;
catena-[(mu-oxalato)-(di-(2-picolyl)amine)-copper(ii) monohydrate]
;
_cell_volume   2959.318
_exptl_crystal_colour 'blue'
_exptl_crystal_density_diffrn 1.656
_exptl_crystal_description 'block'
_diffrn_ambient_temperature 100
#These two values have been output from a single CSD field.
_refine_ls_R_factor_gt 0.0362
_refine_ls_wR_factor_gt 0.0362
_symmetry_cell_setting orthorhombic
_symmetry_space_group_name_H-M 'P b c a'
_symmetry_Int_Tables_number 61
loop_
_atom_site_label
_atom_site_type_symbol
_atom_site_fract_x
_atom_site_fract_y
_atom_site_fract_z
_atom_site_B_iso_or_equiv
C1        C         0.014          0.7482         0.47595        1.000          
C2        C         0.014          0.7518         0.97595        1.000          
C3        C         0.02577        0.2912         0.08258        1.000          
C4        C         0.02577        0.2088         0.58258        1.000          
C5        C         0.06031        0.518          0.88716        1.000          
C6        C         0.06031        0.982          0.38716        1.000          
C7        C         0.06533        0.7292         0.70937        1.000          
C8        C         0.06533        0.7708         0.20937        1.000          
C9        C         0.0781         0.6748         0.98922        1.000          
C10       C         0.0781         0.8252         0.48922        1.000          
C11       C         0.09693        0.2173         0.10221        1.000          
C12       C         0.09693        0.2827         0.60221        1.000          
C13       C         0.10195        0.5554         0.94456        1.000          
C14       C         0.10195        0.9446         0.44456        1.000          
C15       C         0.12106        0.0519         0.85927        1.000          
C16       C         0.12106        0.4481         0.35927        1.000          
C17       C         0.13138        0.7346         0.16168        1.000          
C18       C         0.13138        0.7654         0.66168        1.000          
C19       C         0.1675         0.0972         0.9124         1.000          
C20       C         0.1675         0.4028         0.4124         1.000          
C21       C         0.17725        0.226          0.78052        1.000          
C22       C         0.17725        0.274          0.28052        1.000          
C23       C         0.1776         0.2119         0.20657        1.000          
C24       C         0.1776         0.2881         0.70657        1.000          
C25       C         0.2199         0.2095         0.89807        1.000          
C26       C         0.2199         0.2905         0.39807        1.000          
C27       C         0.225          0.2248         0.33176        1.000          
C28       C         0.225          0.2752         0.83176        1.000          
C29       C         0.275          0.7248         0.33176        1.000          
C30       C         0.275          0.7752         0.83176        1.000          
C31       C         0.2801         0.7095         0.89807        1.000          
C32       C         0.2801         0.7905         0.39807        1.000          
C33       C         0.3224         0.7119         0.20657        1.000          
C34       C         0.3224         0.7881         0.70657        1.000          
C35       C         0.32275        0.726          0.78052        1.000          
C36       C         0.32275        0.774          0.28052        1.000          
C37       C         0.3325         0.5972         0.9124         1.000          
C38       C         0.3325         0.9028         0.4124         1.000          
C39       C         0.36862        0.2346         0.16168        1.000          
C40       C         0.36862        0.2654         0.66168        1.000          
C41       C         0.37894        0.5519         0.85927        1.000          
C42       C         0.37894        0.9481         0.35927        1.000          
C43       C         0.39805        0.0554         0.94456        1.000          
C44       C         0.39805        0.4446         0.44456        1.000          
C45       C         0.40307        0.7173         0.10221        1.000          
C46       C         0.40307        0.7827         0.60221        1.000          
C47       C         0.4219         0.1748         0.98922        1.000          
C48       C         0.4219         0.3252         0.48922        1.000          
C49       C         0.43467        0.2292         0.70937        1.000          
C50       C         0.43467        0.2708         0.20937        1.000          
C51       C         0.43969        0.018          0.88716        1.000          
C52       C         0.43969        0.482          0.38716        1.000          
C53       C         0.47423        0.7088         0.58258        1.000          
C54       C         0.47423        0.7912         0.08258        1.000          
C55       C         0.486          0.2482         0.47595        1.000          
C56       C         0.486          0.2518         0.97595        1.000          
C57       C         0.514          0.7482         0.02405        1.000          
C58       C         0.514          0.7518         0.52405        1.000          
C59       C         0.52577        0.2088         0.91742        1.000          
C60       C         0.52577        0.2912         0.41742        1.000          
C61       C         0.56031        0.518          0.61284        1.000          
C62       C         0.56031        0.982          0.11284        1.000          
C63       C         0.56533        0.7292         0.79063        1.000          
C64       C         0.56533        0.7708         0.29063        1.000          
C65       C         0.5781         0.6748         0.51078        1.000          
C66       C         0.5781         0.8252         0.01078        1.000          
C67       C         0.59693        0.2173         0.39779        1.000          
C68       C         0.59693        0.2827         0.89779        1.000          
C69       C         0.60195        0.5554         0.55544        1.000          
C70       C         0.60195        0.9446         0.05544        1.000          
C71       C         0.62106        0.0519         0.64073        1.000          
C72       C         0.62106        0.4481         0.14073        1.000          
C73       C         0.63138        0.7346         0.33832        1.000          
C74       C         0.63138        0.7654         0.83832        1.000          
C75       C         0.6675         0.0972         0.5876         1.000          
C76       C         0.6675         0.4028         0.0876         1.000          
C77       C         0.67725        0.226          0.71948        1.000          
C78       C         0.67725        0.274          0.21948        1.000          
C79       C         0.6776         0.2119         0.29343        1.000          
C80       C         0.6776         0.2881         0.79343        1.000          
C81       C         0.7199         0.2095         0.60193        1.000          
C82       C         0.7199         0.2905         0.10193        1.000          
C83       C         0.725          0.2248         0.16824        1.000          
C84       C         0.725          0.2752         0.66824        1.000          
C85       C         0.775          0.7248         0.16824        1.000          
C86       C         0.775          0.7752         0.66824        1.000          
C87       C         0.7801         0.7095         0.60193        1.000          
C88       C         0.7801         0.7905         0.10193        1.000          
C89       C         0.8224         0.7119         0.29343        1.000          
C90       C         0.8224         0.7881         0.79343        1.000          
C91       C         0.82275        0.726          0.71948        1.000          
C92       C         0.82275        0.774          0.21948        1.000          
C93       C         0.8325         0.5972         0.5876         1.000          
C94       C         0.8325         0.9028         0.0876         1.000          
C95       C         0.86862        0.2346         0.33832        1.000          
C96       C         0.86862        0.2654         0.83832        1.000          
C97       C         0.87894        0.5519         0.64073        1.000          
C98       C         0.87894        0.9481         0.14073        1.000          
C99       C         0.89805        0.0554         0.55544        1.000          
C100      C         0.89805        0.4446         0.05544        1.000          
C101      C         0.90307        0.7173         0.39779        1.000          
C102      C         0.90307        0.7827         0.89779        1.000          
C103      C         0.9219         0.1748         0.51078        1.000          
C104      C         0.9219         0.3252         0.01078        1.000          
C105      C         0.93467        0.2292         0.79063        1.000          
C106      C         0.93467        0.2708         0.29063        1.000          
C107      C         0.93969        0.018          0.61284        1.000          
C108      C         0.93969        0.482          0.11284        1.000          
C109      C         0.97423        0.7912         0.41742        1.000          
C110      C         0.97423        0.7088         0.91742        1.000          
C111      C         0.986          0.2482         0.02405        1.000          
C112      C         0.986          0.2518         0.52405        1.000          
Cu1       Cu        0.06165        0.06938        0.713          1.000          
Cu2       Cu        0.06165        0.06938        0.713          1.000          
Cu3       Cu        0.06165        0.43062        0.213          1.000          
Cu4       Cu        0.06165        0.43062        0.213          1.000          
Cu5       Cu        0.43835        0.56938        0.713          1.000          
Cu6       Cu        0.43835        0.56938        0.713          1.000          
Cu7       Cu        0.43835        0.93062        0.213          1.000          
Cu8       Cu        0.43835        0.93062        0.213          1.000          
Cu9       Cu        0.56165        0.06938        0.787          1.000          
Cu10      Cu        0.56165        0.06938        0.787          1.000          
Cu11      Cu        0.56165        0.43062        0.287          1.000          
Cu12      Cu        0.56165        0.43062        0.287          1.000          
Cu13      Cu        0.93835        0.56938        0.787          1.000          
Cu14      Cu        0.93835        0.56938        0.787          1.000          
Cu15      Cu        0.93835        0.93062        0.287          1.000          
Cu16      Cu        0.93835        0.93062        0.287          1.000          
H1        H         0.0026         0.1683         0.9941         1.000          
H2        H         0.0026         0.3317         0.4941         1.000          
H3        H         0.0755         0.3654         0.6987         1.000          
H4        H         0.0755         0.1346         0.1987         1.000          
H5        H         0.076          0.438          0.8568         1.000          
H6        H         0.076          0.062          0.3568         1.000          
H7        H         0.0856         0.9759         0.8685         1.000          
H8        H         0.0856         0.5241         0.3685         1.000          
H9        H         0.099          0.1068         0.0861         1.000          
H10       H         0.099          0.3932         0.5861         1.000          
H11       H         0.1054         0.7969         0.5281         1.000          
H12       H         0.1054         0.7031         0.0281         1.000          
H13       H         0.136          0.2765         0.0806         1.000          
H14       H         0.136          0.2235         0.5806         1.000          
H15       H         0.145          0.5016         0.953          1.000          
H16       H         0.145          0.9984         0.453          1.000          
H17       H         0.1634         0.0527         0.9568         1.000          
H18       H         0.1634         0.4473         0.4568         1.000          
H19       H         0.1938         0.1011         0.2057         1.000          
H20       H         0.1938         0.3989         0.7057         1.000          
H21       H         0.2101         0.2246         0.6781         1.000          
H22       H         0.2101         0.2754         0.1781         1.000          
H23       H         0.2125         0.5344         0.0755         1.000          
H24       H         0.2125         0.9656         0.5755         1.000          
H25       H         0.233          0.9221         0.0668         1.000          
H26       H         0.233          0.5779         0.5668         1.000          
H27       H         0.2399         0.6484         0.3218         1.000          
H28       H         0.2399         0.8516         0.8218         1.000          
H29       H         0.2481         0.7411         0.9329         1.000          
H30       H         0.2481         0.7589         0.4329         1.000          
H31       H         0.2519         0.2411         0.9329         1.000          
H32       H         0.2519         0.2589         0.4329         1.000          
H33       H         0.2601         0.1484         0.3218         1.000          
H34       H         0.2601         0.3516         0.8218         1.000          
H35       H         0.267          0.0779         0.5668         1.000          
H36       H         0.267          0.4221         0.0668         1.000          
H37       H         0.2875         0.0344         0.0755         1.000          
H38       H         0.2875         0.4656         0.5755         1.000          
H39       H         0.2899         0.7246         0.6781         1.000          
H40       H         0.2899         0.7754         0.1781         1.000          
H41       H         0.3062         0.6011         0.2057         1.000          
H42       H         0.3062         0.8989         0.7057         1.000          
H43       H         0.3366         0.5527         0.9568         1.000          
H44       H         0.3366         0.9473         0.4568         1.000          
H45       H         0.355          0.0016         0.953          1.000          
H46       H         0.355          0.4984         0.453          1.000          
H47       H         0.364          0.7235         0.5806         1.000          
H48       H         0.364          0.7765         0.0806         1.000          
H49       H         0.3946         0.2031         0.0281         1.000          
H50       H         0.3946         0.2969         0.5281         1.000          
H51       H         0.401          0.6068         0.0861         1.000          
H52       H         0.401          0.8932         0.5861         1.000          
H53       H         0.4144         0.0241         0.3685         1.000          
H54       H         0.4144         0.4759         0.8685         1.000          
H55       H         0.424          0.562          0.3568         1.000          
H56       H         0.424          0.938          0.8568         1.000          
H57       H         0.4245         0.6346         0.1987         1.000          
H58       H         0.4245         0.8654         0.6987         1.000          
H59       H         0.4974         0.6683         0.9941         1.000          
H60       H         0.4974         0.8317         0.4941         1.000          
H61       H         0.5026         0.1683         0.5059         1.000          
H62       H         0.5026         0.3317         0.0059         1.000          
H63       H         0.5755         0.1346         0.3013         1.000          
H64       H         0.5755         0.3654         0.8013         1.000          
H65       H         0.576          0.062          0.1432         1.000          
H66       H         0.576          0.438          0.6432         1.000          
H67       H         0.5856         0.5241         0.1315         1.000          
H68       H         0.5856         0.9759         0.6315         1.000          
H69       H         0.599          0.1068         0.4139         1.000          
H70       H         0.599          0.3932         0.9139         1.000          
H71       H         0.6054         0.7031         0.4719         1.000          
H72       H         0.6054         0.7969         0.9719         1.000          
H73       H         0.636          0.2235         0.9194         1.000          
H74       H         0.636          0.2765         0.4194         1.000          
H75       H         0.645          0.5016         0.547          1.000          
H76       H         0.645          0.9984         0.047          1.000          
H77       H         0.6634         0.0527         0.5432         1.000          
H78       H         0.6634         0.4473         0.0432         1.000          
H79       H         0.6938         0.1011         0.2943         1.000          
H80       H         0.6938         0.3989         0.7943         1.000          
H81       H         0.7101         0.2246         0.8219         1.000          
H82       H         0.7101         0.2754         0.3219         1.000          
H83       H         0.7125         0.5344         0.4245         1.000          
H84       H         0.7125         0.9656         0.9245         1.000          
H85       H         0.733          0.5779         0.9332         1.000          
H86       H         0.733          0.9221         0.4332         1.000          
H87       H         0.7399         0.6484         0.1782         1.000          
H88       H         0.7399         0.8516         0.6782         1.000          
H89       H         0.7481         0.7411         0.5671         1.000          
H90       H         0.7481         0.7589         0.0671         1.000          
H91       H         0.7519         0.2411         0.5671         1.000          
H92       H         0.7519         0.2589         0.0671         1.000          
H93       H         0.7601         0.1484         0.1782         1.000          
H94       H         0.7601         0.3516         0.6782         1.000          
H95       H         0.767          0.4221         0.4332         1.000          
H96       H         0.767          0.0779         0.9332         1.000          
H97       H         0.7875         0.0344         0.4245         1.000          
H98       H         0.7875         0.4656         0.9245         1.000          
H99       H         0.7899         0.7246         0.8219         1.000          
H100      H         0.7899         0.7754         0.3219         1.000          
H101      H         0.8062         0.6011         0.2943         1.000          
H102      H         0.8062         0.8989         0.7943         1.000          
H103      H         0.8366         0.5527         0.5432         1.000          
H104      H         0.8366         0.9473         0.0432         1.000          
H105      H         0.855          0.0016         0.547          1.000          
H106      H         0.855          0.4984         0.047          1.000          
H107      H         0.864          0.7765         0.4194         1.000          
H108      H         0.864          0.7235         0.9194         1.000          
H109      H         0.8946         0.2031         0.4719         1.000          
H110      H         0.8946         0.2969         0.9719         1.000          
H111      H         0.901          0.6068         0.4139         1.000          
H112      H         0.901          0.8932         0.9139         1.000          
H113      H         0.9144         0.4759         0.6315         1.000          
H114      H         0.9144         0.0241         0.1315         1.000          
H115      H         0.924          0.562          0.1432         1.000          
H116      H         0.924          0.938          0.6432         1.000          
H117      H         0.9245         0.8654         0.8013         1.000          
H118      H         0.9245         0.6346         0.3013         1.000          
H119      H         0.9974         0.6683         0.5059         1.000          
H120      H         0.9974         0.8317         0.0059         1.000          
N1        N         0.00185        0.4072         0.12644        1.000          
N2        N         0.00185        0.0928         0.62644        1.000          
N3        N         0.10376        0.2769         0.679          1.000          
N4        N         0.10376        0.2231         0.179          1.000          
N5        N         0.12594        0.1152         0.79437        1.000          
N6        N         0.12594        0.3848         0.29437        1.000          
N7        N         0.37406        0.6152         0.79437        1.000          
N8        N         0.37406        0.8848         0.29437        1.000          
N9        N         0.39624        0.7231         0.179          1.000          
N10       N         0.39624        0.7769         0.679          1.000          
N11       N         0.49815        0.5928         0.62644        1.000          
N12       N         0.49815        0.9072         0.12644        1.000          
N13       N         0.50185        0.0928         0.87356        1.000          
N14       N         0.50185        0.4072         0.37356        1.000          
N15       N         0.60376        0.2231         0.321          1.000          
N16       N         0.60376        0.2769         0.821          1.000          
N17       N         0.62594        0.1152         0.70563        1.000          
N18       N         0.62594        0.3848         0.20563        1.000          
N19       N         0.87406        0.6152         0.70563        1.000          
N20       N         0.87406        0.8848         0.20563        1.000          
N21       N         0.89624        0.7769         0.821          1.000          
N22       N         0.89624        0.7231         0.321          1.000          
N23       N         0.99815        0.9072         0.37356        1.000          
N24       N         0.99815        0.5928         0.87356        1.000          
O1        O         0.03447        0.6511         0.23808        1.000          
O2        O         0.03447        0.8489         0.73808        1.000          
O3        O         0.04528        0.5886         0.71767        1.000          
O4        O         0.04528        0.9114         0.21767        1.000          
O5        O         0.04528        0.9114         0.21767        1.000          
O6        O         0.14917        0.5891         0.15619        1.000          
O7        O         0.14917        0.9109         0.65619        1.000          
O8        O         0.15868        0.6482         0.63132        1.000          
O9        O         0.15868        0.8518         0.13132        1.000          
O10       O         0.23694        0.0179         0.54576        1.000          
O11       O         0.23694        0.4821         0.04576        1.000          
O12       O         0.26306        0.5179         0.54576        1.000          
O13       O         0.26306        0.9821         0.04576        1.000          
O14       O         0.34132        0.1482         0.63132        1.000          
O15       O         0.34132        0.3518         0.13132        1.000          
O16       O         0.35083        0.0891         0.15619        1.000          
O17       O         0.35083        0.4109         0.65619        1.000          
O18       O         0.45472        0.0886         0.71767        1.000          
O19       O         0.45472        0.4114         0.21767        1.000          
O20       O         0.45472        0.4114         0.21767        1.000          
O21       O         0.46553        0.1511         0.23808        1.000          
O22       O         0.46553        0.3489         0.73808        1.000          
O23       O         0.53447        0.6511         0.26192        1.000          
O24       O         0.53447        0.8489         0.76192        1.000          
O25       O         0.54528        0.5886         0.78233        1.000          
O26       O         0.54528        0.9114         0.28233        1.000          
O27       O         0.54528        0.9114         0.28233        1.000          
O28       O         0.64917        0.5891         0.34381        1.000          
O29       O         0.64917        0.9109         0.84381        1.000          
O30       O         0.65868        0.6482         0.86868        1.000          
O31       O         0.65868        0.8518         0.36868        1.000          
O32       O         0.73694        0.0179         0.95424        1.000          
O33       O         0.73694        0.4821         0.45424        1.000          
O34       O         0.76306        0.5179         0.95424        1.000          
O35       O         0.76306        0.9821         0.45424        1.000          
O36       O         0.84132        0.1482         0.86868        1.000          
O37       O         0.84132        0.3518         0.36868        1.000          
O38       O         0.85083        0.0891         0.34381        1.000          
O39       O         0.85083        0.4109         0.84381        1.000          
O40       O         0.95472        0.0886         0.78233        1.000          
O41       O         0.95472        0.4114         0.28233        1.000          
O42       O         0.95472        0.4114         0.28233        1.000          
O43       O         0.96553        0.1511         0.26192        1.000          
O44       O         0.96553        0.3489         0.76192        1.000          


#END