
#(C) 2019 by FIZ Karlsruhe - Leibniz Institute for Information Infrastructure.  All rights reserved.
data_314-ICSD
_database_code_ICSD 314
_audit_creation_date 1980-01-01
_audit_update_record 2011-08-01
_chemical_name_systematic
'Potassium tetracyanoplatinate bromide hydrate (2/1/0.3/3.2)'
_chemical_formula_structural 'K2 (Pt (C N)4) Br0.304 (H2 O)3.2'
_chemical_formula_sum 'C4 H6.4 Br0.304 K2 N4 O3.2 Pt1'
_chemical_name_structure_type K2Pt(CN)4Brx(H2O)3+y
_exptl_crystal_density_diffrn 2.77
_cell_measurement_temperature 8.
_publ_section_title

;
Crystal structure of K C P (Br) (K2 Pt (C N)4 Br0.30 (H2 0)3.2) as determined
by 300-K X-ray and 8-K neutron diffraction investigations
;
loop_
_citation_id
_citation_journal_full
_citation_year
_citation_journal_volume
_citation_page_first
_citation_page_last
_citation_journal_id_ASTM
primary 'Inorganic Chemistry' 1976 15 782 788 INOCAJ
loop_
_publ_author_name
'Peters, C.'
'Eagen, C.F.'
_cell_length_a 9.829(4)
_cell_length_b 9.829(4)
_cell_length_c 5.705(3)
_cell_angle_alpha 90.
_cell_angle_beta 90.
_cell_angle_gamma 90.
_cell_volume 551.16
_cell_formula_units_Z 2
_symmetry_space_group_name_H-M 'P 4 m m'
_symmetry_Int_Tables_number 99
_refine_ls_R_factor_all 0.039
loop_
_symmetry_equiv_pos_site_id
_symmetry_equiv_pos_as_xyz
1 'y, -x, z'
2 '-y, x, z'
3 '-y, -x, z'
4 'y, x, z'
5 'x, -y, z'
6 '-x, y, z'
7 '-x, -y, z'
8 'x, y, z'
loop_
_atom_type_symbol
_atom_type_oxidation_number
Pt2+ 2
C2+ 2
N3- -3
O2- -2
K1+ 1
Br1- -1
H1+ 1
loop_
_atom_site_label
_atom_site_type_symbol
_atom_site_symmetry_multiplicity
_atom_site_Wyckoff_symbol
_atom_site_fract_x
_atom_site_fract_y
_atom_site_fract_z
_atom_site_B_iso_or_equiv
_atom_site_occupancy
_atom_site_attached_hydrogens
Pt1 Pt2+ 1 a 0 0 0 . 1. 0
Pt2 Pt2+ 1 a 0 0 0.500(1) . 1. 0
C1 C2+ 4 e 0.2033(2) 0 0.0051(10) . 1. 0
C2 C2+ 4 d 0.1438(3) 0.1438(3) 0.4986(9) . 1. 0
N1 N3- 4 e 0.3212(2) 0 0.0123(9) . 1. 0
N2 N3- 4 d 0.2273(3) 0.2273(3) 0.4905(9) . 1. 0
O1 O2- 4 d 0.3392(8) 0.3392(8) 0.9338(15) . 1. 0
O2 O2- 2 c 0.5 0 0.5974(11) . 1. 0
O3 O2- 1 b 0.5 0.5 0.358(7) . 0.42(2) 0
K1 K1+ 4 f 0.1945(6) 0.5 0.2581(13) . 1. 0
Br1 Br1- 1 b 0.5 0.5 0.5127(19) . 0.608 0
H1 H1+ 4 d 0.279(2) 0.279(2) 0.848(3) . 0.8 0
H2 H1+ 4 d 0.372(5) 0.372(5) 0.815(3) . 0.8 0
H3 H1+ 4 e 0.4239(8) 0 0.701(2) . 0.8 0
H4 H1+ 4 d 0.44(3) 0.44(3) 0.56(3) . 0.8 0
loop_
_atom_site_aniso_label
_atom_site_aniso_type_symbol
_atom_site_aniso_U_11
_atom_site_aniso_U_22
_atom_site_aniso_U_33
_atom_site_aniso_U_12
_atom_site_aniso_U_13
_atom_site_aniso_U_23
Pt1 Pt2+ 0.0052(9) 0.0052(9) 0.0045(12) 0 0 0
Pt2 Pt2+ 0.0050(19) 0.0050(19) 0.0044(12) 0 0 0
C1 C2+ 0.0078(12) 0.0107(12) 0.0082(11) 0 0 0
C2 C2+ 0.0088(19) 0.0088(19) 0.0113(11) 0 0 0
N1 N3- 0.0065(10) 0.0175(10) 0.0104(9) 0 0.0035(10) 0
N2 N3- 0.0106(14) 0.0106(14) 0.0126(10) -.0331(58) 0 0
O1 O2- 0.0157(42) 0.0157(42) 0.0266(37) 0 -.0109(32) -.0109(32)
O2 O2- 0.0046(26) 0.0262(28) 0.0075(24) 0 0 0
O3 O2- 0.040(25) 0.040(25) 0.045(26) 0 0 0
K1 K1+ 0.0152(27) 0.0107(25) 0.0113(25) 0 0.0057(20) 0
Br1 Br1- 0.0025(79) 0.0025(79) 0.0025(69) 0 0 0
H1 H1+ 0.053(11) 0.053(11) 0.091(14) -0.072(56) -0.035(12) -0.035(12)
H2 H1+ 0.132(30) 0.132(30) 0.0411(74) 0.469(15) 0.031(17) 0.469(15)
H3 H1+ 0.0213(38) 0.0493(48) 0.0335(40) 0 0.0156(31) 0
H4 H1+ 0.23(36) 0.23(36) 0.14(13) 0 0 0
#End of TTdata_314-ICSD
