
#(C) 2019 by FIZ Karlsruhe - Leibniz Institute for Information Infrastructure.  All rights reserved.
data_300-ICSD
_database_code_ICSD 300
_audit_creation_date 1980-01-01
_audit_update_record 2011-08-01
_chemical_name_systematic 'Dipotassium tetracyanoplatinate trihydrate'
_chemical_formula_structural 'K2 (Pt (C N)4) (H2 O)3'
_chemical_formula_sum 'C4 H6 K2 N4 O3 Pt1'
_exptl_crystal_density_diffrn 2.59
_publ_section_title

;
Crystal and molecular structure by neutron diffraction of potassium
tetracyanoplatinate(II) trihydrate, the starting product for partially
oxidized conducting cyanoplatinate salts
;
loop_
_citation_id
_citation_journal_full
_citation_year
_citation_journal_volume
_citation_page_first
_citation_page_last
_citation_journal_id_ASTM
primary 'Inorganic Chemistry' 1976 15 74 78 INOCAJ
loop_
_publ_author_name
'Washecheck, D.M.'
'Peterson, S.'
'Reis, A.H.jr.'
'Williams, J.M.'
_cell_length_a 13.426(5)
_cell_length_b 11.848(4)
_cell_length_c 6.956(2)
_cell_angle_alpha 90.
_cell_angle_beta 90.
_cell_angle_gamma 90.
_cell_volume 1106.5
_cell_formula_units_Z 4
_symmetry_space_group_name_H-M 'P b c n'
_symmetry_Int_Tables_number 60
_refine_ls_R_factor_all 0.061
loop_
_symmetry_equiv_pos_site_id
_symmetry_equiv_pos_as_xyz
1 'x, -y, z+1/2'
2 '-x+1/2, y+1/2, z'
3 'x+1/2, y+1/2, -z+1/2'
4 '-x, -y, -z'
5 '-x, y, -z+1/2'
6 'x+1/2, -y+1/2, -z'
7 '-x+1/2, -y+1/2, z+1/2'
8 'x, y, z'
loop_
_atom_type_symbol
_atom_type_oxidation_number
Pt2+ 2
C2+ 2
N3- -3
O2- -2
H1+ 1
K1+ 1
loop_
_atom_site_label
_atom_site_type_symbol
_atom_site_symmetry_multiplicity
_atom_site_Wyckoff_symbol
_atom_site_fract_x
_atom_site_fract_y
_atom_site_fract_z
_atom_site_B_iso_or_equiv
_atom_site_occupancy
_atom_site_attached_hydrogens
Pt1 Pt2+ 4 a 0 0 0 . 1. 0
C1 C2+ 8 d -.0203(2) 0.1665(2) 0.0003(4) . 1. 0
C2 C2+ 8 d 0.1461(2) 0.0244(2) -.0160(4) . 1. 0
N1 N3- 8 d -.0299(1) 0.2637(1) 0.0006(4) . 1. 0
N2 N3- 8 d 0.2314(1) 0.0384(2) -.0262(3) . 1. 0
O1 O2- 4 c 0 0.4706(4) 0.25 . 1. 0
O2 O2- 8 d 0.1987(4) 0.2959(4) 0.1809(6) . 1. 0
H1 H1+ 8 d 0.0115(6) 0.4200(7) 0.3507(12) . 1. 0
H2 H1+ 8 d 0.2189(6) 0.3582(7) 0.2593(12) . 1. 0
H3 H1+ 8 d 0.1419(6) 0.2688(7) 0.2389(13) . 1. 0
K1 K1+ 8 d 0.3438(4) 0.1403(4) 0.2959(8) . 1. 0
loop_
_atom_site_aniso_label
_atom_site_aniso_type_symbol
_atom_site_aniso_beta_11
_atom_site_aniso_beta_22
_atom_site_aniso_beta_33
_atom_site_aniso_beta_12
_atom_site_aniso_beta_13
_atom_site_aniso_beta_23
Pt1 Pt2+ 0.0031(1) 0.0031(1) 0.0072(4) 0.0000(1) 0.0001(2) -.0006(3)
C1 C2+ 0.0042(1) 0.0029(2) 0.0114(5) 0.0000(1) -.0003(1) -.0001(3)
C2 C2+ 0.0034(1) 0.0042(2) 0.0101(6) 0.0001(1) 0.0002(2) -.0007(3)
N1 N3- 0.0059(1) 0.0035(1) 0.0167(5) 0.0006(1) -.0010(1) 0.0005(3)
N2 N3- 0.0041(1) 0.0060(2) 0.0168(6) -.0002(1) 0.0001(2) -.0011(3)
O1 O2- 0.0054(35) 0.0053(18) 0.0279 0 0.0016(7) 0
O2 O2- 0.0063(3) 0.0054(3) 0.0178(9) -.0005(2) -.0006(4) -.0011(5)
H1 H1+ 0.0084(5) 0.0079(6) 0.0343(23) 0.0006(5) 0.0004(9) 0.0024(9)
H2 H1+ 0.0108(6) 0.0074(6) 0.0352(24) 0.0008(4) -.0051(10) -.0056(10)
H3 H1+ 0.0067(5) 0.0115(7) 0.0417(28) -.0003(5) 0.0021(10) 0.0036(11)
K1 K1+ 0.0048(4) 0.0062(4) 0.0149(12) -.0002(3) 0.0001(5) 0.0021(6)
#End of TTdata_300-ICSD
