
#(C) 2019 by FIZ Karlsruhe - Leibniz Institute for Information Infrastructure.  All rights reserved.
data_182-ICSD
_database_code_ICSD 182
_audit_creation_date 1980-01-01
_audit_update_record 2010-08-01
_chemical_name_systematic 'Hexakis(deuteriocyanido)iron tetrachloroferrate(III)'
_chemical_formula_structural '(Fe (N C D)6) (Fe Cl4)2'
_chemical_formula_sum 'C6 D6 Cl8 Fe3 N6'
_chemical_name_structure_type Fe(HCN)6(FeCl4)2
_exptl_crystal_density_diffrn 1.79
_publ_section_title

;
Etude structurale par diffraction des neutrons du ditetrachloroferrate (III)
d'hexacyanure de deuterium fer(II)
;
loop_
_citation_id
_citation_journal_full
_citation_year
_citation_journal_volume
_citation_page_first
_citation_page_last
_citation_journal_id_ASTM
primary

;
Acta Crystallographica, Section B: Structural Crystallography and Crystal
Chemistry
; 1975 31 1838 1841 ACBCAR
loop_
_publ_author_name
'Daran, J.C.'
'Jeannin, Y.P.'
'Fuess, H.'
'Yelon, W.B.'
_cell_length_a 10.29(1)
_cell_length_b 10.29(1)
_cell_length_c 6.283(6)
_cell_angle_alpha 90.
_cell_angle_beta 90.
_cell_angle_gamma 120.
_cell_volume 576.14
_cell_formula_units_Z 1
_symmetry_space_group_name_H-M 'P -3'
_symmetry_Int_Tables_number 147
_refine_ls_R_factor_all 0.052
loop_
_symmetry_equiv_pos_site_id
_symmetry_equiv_pos_as_xyz
1 'x-y, x, -z'
2 'y, -x+y, -z'
3 '-x, -y, -z'
4 '-x+y, -x, z'
5 '-y, x-y, z'
6 'x, y, z'
loop_
_atom_type_symbol
_atom_type_oxidation_number
Fe2+ 2
N3- -3
C2+ 2
D1+ 1
Fe3+ 3
Cl1- -1
loop_
_atom_site_label
_atom_site_type_symbol
_atom_site_symmetry_multiplicity
_atom_site_Wyckoff_symbol
_atom_site_fract_x
_atom_site_fract_y
_atom_site_fract_z
_atom_site_B_iso_or_equiv
_atom_site_occupancy
_atom_site_attached_hydrogens
Fe1 Fe2+ 1 a 0 0 0 . 1. 0
N1 N3- 6 g 0.1893(3) 0.1460(3) 0.1929(4) . 1. 0
C1 C2+ 6 g 0.2970(5) 0.2310(5) 0.2734(8) . 1. 0
D1 D1+ 6 g 0.3942(7) 0.3078(9) 0.3514(13) . 1. 0
Fe2 Fe3+ 2 d 0.6666 0.3333 0.8590(6) . 1. 0
Cl1 Cl1- 2 d 0.6666 0.3333 0.2081(7) . 1. 0
Cl2 Cl1- 6 g 0.6289(4) 0.1156(3) 0.7471(5) . 1. 0
loop_
_atom_site_aniso_label
_atom_site_aniso_type_symbol
_atom_site_aniso_U_11
_atom_site_aniso_U_22
_atom_site_aniso_U_33
_atom_site_aniso_U_12
_atom_site_aniso_U_13
_atom_site_aniso_U_23
Fe1 Fe2+ 0.045(2) 0.045(2) 0.046(3) 0.023(1) 0 0
N1 N3- 0.048(2) 0.054(2) 0.058(2) 0.022(1) 0.006(1) 0.006(1)
C1 C2+ 0.054(3) 0.081(3) 0.079(3) 0.019(2) 0.019(2) 0.022(3)
D1 D1+ 0.081(4) 0.159(8) 0.196(7) 0.015(4) 0.061(5) 0.066(6)
Fe2 Fe3+ 0.048(2) 0.048(2) 0.040(2) 0.024(1) 0 0
Cl1 Cl1- 0.072(2) 0.072(2) 0.033(2) 0.036(1) 0 0
Cl2 Cl1- 0.088(2) 0.056(2) 0.068(2) 0.039(2) -.006(2) 0.009(1)
#End of TTdata_182-ICSD
