
#(C) 2019 by FIZ Karlsruhe - Leibniz Institute for Information Infrastructure.  All rights reserved.
data_315-ICSD
_database_code_ICSD 315
_audit_creation_date 1980-01-01
_audit_update_record 2011-08-01
_chemical_name_systematic
'Potassium tetracyanoplatinate bromide hydrate (2/1/0.3/3.22)'
_chemical_formula_structural 'K2 (Pt (C N)4) Br0.304 (H2 O)3.22'
_chemical_formula_sum 'C4 H6.44 Br0.304 K2 N4 O3.22 Pt1'
_chemical_name_structure_type K2Pt(CN)4Brx(H2O)3+y
_exptl_crystal_density_diffrn 2.7
_cell_measurement_temperature 296.
_publ_section_title

;
Crystal structure of K C P (Br) (K2 Pt (C N)4 Br0.30 (H2 0)3.2) as determined
by 300-K X-ray and 8-K neutron diffraction investigations
;
loop_
_citation_id
_citation_journal_full
_citation_year
_citation_journal_volume
_citation_page_first
_citation_page_last
_citation_journal_id_ASTM
primary 'Inorganic Chemistry' 1976 15 782 788 INOCAJ
loop_
_publ_author_name
'Peters, C.'
'Eagen, C.F.'
_cell_length_a 9.890(7)
_cell_length_b 9.890(7)
_cell_length_c 5.789(3)
_cell_angle_alpha 90.
_cell_angle_beta 90.
_cell_angle_gamma 90.
_cell_volume 566.23
_cell_formula_units_Z 2
_symmetry_space_group_name_H-M 'P 4 m m'
_symmetry_Int_Tables_number 99
_refine_ls_R_factor_all 0.019
loop_
_symmetry_equiv_pos_site_id
_symmetry_equiv_pos_as_xyz
1 'y, -x, z'
2 '-y, x, z'
3 '-y, -x, z'
4 'y, x, z'
5 'x, -y, z'
6 '-x, y, z'
7 '-x, -y, z'
8 'x, y, z'
loop_
_atom_type_symbol
_atom_type_oxidation_number
Pt2+ 2
C2+ 2
N3- -3
O2- -2
K1+ 1
Br1- -1
H1+ 1
loop_
_atom_site_label
_atom_site_type_symbol
_atom_site_symmetry_multiplicity
_atom_site_Wyckoff_symbol
_atom_site_fract_x
_atom_site_fract_y
_atom_site_fract_z
_atom_site_B_iso_or_equiv
_atom_site_occupancy
_atom_site_attached_hydrogens
Pt1 Pt2+ 1 a 0 0 0 . 1. 0
Pt2 Pt2+ 1 a 0 0 0.4991(2) . 1. 0
C1 C2+ 4 e 0.2007(7) 0 0.0162(23) . 1. 0
C2 C2+ 4 d 0.143(1) 0.143(1) 0.5151(24) . 1. 0
N1 N3- 4 e 0.3173(8) 0 0.0250(19) . 1. 0
N2 N3- 4 d 0.2252(10) 0.2252(10) 0.5069(24) . 1. 0
O1 O2- 4 d 0.3396(12) 0.3396(12) 0.9395(21) . 1. 0
O2 O2- 2 c 0.5 0 0.6126(24) . 1. 0
O3 O2- 1 b 0.5 0.5 0.348(9) . 0.44 0
K1 K1+ 4 f 0.1933(2) 0.5 0.2672(15) . 1. 0
Br1 Br1- 1 b 0.5 0.5 0.4995(18) . 0.608 0
loop_
_atom_site_aniso_label
_atom_site_aniso_type_symbol
_atom_site_aniso_U_11
_atom_site_aniso_U_22
_atom_site_aniso_U_33
_atom_site_aniso_U_12
_atom_site_aniso_U_13
_atom_site_aniso_U_23
Pt1 Pt2+ 0.0161(3) 0.0161(3) 0.0148(3) 0 0 0
Pt2 Pt2+ 0.0178(4) 0.0178(4) 0.0157(3) 0 0 0
C1 C2+ 0.0250(26) 0.0265(26) 0.0212(40) 0 0.0044(38) 0
C2 C2+ 0.0256(31) 0.0256(31) 0.0262(42) 0.0006(21) -.0056(61) -.0056(2)
N1 N3- 0.0276(27) 0.0482(39) 0.0331(58) 0 0.0065(35) 0
N2 N3- 0.0387(41) 0.0387(41) 0.0436(44) 0.0091(28) 0.0151(70) 0.0151(2)
O1 O2- 0.0736(76) 0.0736(76) 0.0727(80) 0.0033(56) -.0199(86) -.0199(56)
O2 O2- 0.0441(62) 0.0866(95) 0.0369(58) 0 0 0
O3 O2- 0.054(33) 0.054(33) 0.082(39) 0 0 0
K1 K1+ 0.0421(10) 0.0448(10) 0.0569(19) 0 0.0008(13) 0
Br1 Br1- 0.0281(14) 0.0281(14) 0.0443(16) 0 0 0
#End of TTdata_315-ICSD
