
#(C) 2019 by FIZ Karlsruhe - Leibniz Institute for Information Infrastructure.  All rights reserved.
data_361-ICSD
_database_code_ICSD 361
_audit_creation_date 1980-01-01
_audit_update_record 2011-08-01
_chemical_name_systematic 'Diammonium dioxofluorooxalatovanadate'
_chemical_formula_structural '(N H4)2 (V O2 F (C2 O4))'
_chemical_formula_sum 'C2 H8 F1 N2 O6 V1'
_exptl_crystal_density_diffrn 1.94
_publ_section_title

;
Dioxofluoro-oxalato-vanadat= ein fuenffach koordiniertes, monomeres Komplexion
des Vanadins(V)
;
loop_
_citation_id
_citation_journal_full
_citation_year
_citation_journal_volume
_citation_page_first
_citation_page_last
_citation_journal_id_ASTM
primary 'Zeitschrift fuer Anorganische und Allgemeine Chemie (1950) (DE)' 1976
419 193 199 ZAACAB
loop_
_publ_author_name
'Rieskamp, H.'
'Mattes, R.'
_cell_length_a 11.362(2)
_cell_length_b 9.503(2)
_cell_length_c 7.190(1)
_cell_angle_alpha 90.
_cell_angle_beta 96.02(2)
_cell_angle_gamma 90.
_cell_volume 772.05
_cell_formula_units_Z 4
_symmetry_space_group_name_H-M 'P 1 21/c 1'
_symmetry_Int_Tables_number 14
_refine_ls_R_factor_all 0.038
loop_
_symmetry_equiv_pos_site_id
_symmetry_equiv_pos_as_xyz
1 'x, -y+1/2, z+1/2'
2 '-x, -y, -z'
3 '-x, y+1/2, -z+1/2'
4 'x, y, z'
loop_
_atom_type_symbol
_atom_type_oxidation_number
V5+ 5
F1- -1
O2- -2
C3+ 3
N3- -3
H1+ 1
loop_
_atom_site_label
_atom_site_type_symbol
_atom_site_symmetry_multiplicity
_atom_site_Wyckoff_symbol
_atom_site_fract_x
_atom_site_fract_y
_atom_site_fract_z
_atom_site_B_iso_or_equiv
_atom_site_occupancy
_atom_site_attached_hydrogens
V1 V5+ 4 e 0.2635(1) 0.0315(1) 0.3460(1) . 1. 0
F1 F1- 4 e 0.4020(3) 0.0758(3) 0.2327(4) . 1. 0
O1 O2- 4 e 0.1675(4) 0.1140(4) 0.2039(6) . 1. 0
O2 O2- 4 e 0.2896(4) 0.3726(4) 0.0310(5) . 1. 0
O3 O2- 4 e 0.8600(3) 0.4086(4) 0.0535(4) . 1. 0
O4 O2- 4 e 0.6652(3) 0.3365(4) 0.1703(5) . 1. 0
O5 O2- 4 e 0.9099(4) 0.3123(4) 0.5010(7) . 1. 0
O6 O2- 4 e 0.6977(4) 0.1074(4) 0.1309(6) . 1. 0
C1 C3+ 4 e 0.8440(4) 0.2744(6) 0.0510(7) . 1. 0
C2 C3+ 4 e 0.7262(5) 0.2307(6) 0.1224(7) . 1. 0
N1 N3- 4 e 0.0983(5) 0.4052(6) 0.2940(8) . 1. 0
N2 N3- 4 e 0.4519(5) 0.3499(6) 0.3702(8) . 1. 0
H1 H1+ 4 e 0.17(1) 0.46(2) 0.35(2) 17.(4) 1. 0
H2 H1+ 4 e 0.13(1) 0.32(1) 0.25(2) 4.(1) 1. 0
H3 H1+ 4 e 0.10(1) 0.45(1) 0.16(2) 19.(3) 1. 0
H4 H1+ 4 e 0.03(1) 0.39(1) 0.33(2) 9.(3) 1. 0
H5 H1+ 4 e 0.40(1) 0.37(1) 0.30(2) 11.(3) 1. 0
H6 H1+ 4 e 0.46(1) 0.26(1) 0.34(1) 4.(2) 1. 0
H7 H1+ 4 e 0.39(1) 0.37(1) 0.48(2) 11.(3) 1. 0
H8 H1+ 4 e 0.53(1) 0.38(1) 0.33(1) 9.(2) 1. 0
loop_
_atom_site_aniso_label
_atom_site_aniso_type_symbol
_atom_site_aniso_B_11
_atom_site_aniso_B_22
_atom_site_aniso_B_33
_atom_site_aniso_B_12
_atom_site_aniso_B_13
_atom_site_aniso_B_23
V1 V5+ 2.1(1) 1.6(1) 1.5(1) 0 0.6 -.2
F1 F1- 3.5(2) 2.3(1) 3.1(2) -.4(1) 2.1(1) -.1(1)
O1 O2- 4.1(2) 2.6(2) 3.0(2) 0.5(2) -.5(2) 0.3(2)
O2 O2- 3.6(2) 3.1(2) 2.1(2) 1.0(2) 0.9(1) 0.8(1)
O3 O2- 1.9(2) 2.2(2) 2.9(2) 0.0(1) 1.0(1) 0.2(1)
O4 O2- 2.0(2) 1.9(2) 3.2(2) 0.0(1) 1.1(1) -.1(1)
O5 O2- 3.0(2) 3.1(2) 4.8(2) -.9(2) 1.9(2) 0.6(2)
O6 O2- 2.9(2) 1.9(2) 4.3(2) -.1(1) 0.8(2) -.2(2)
C1 C3+ 1.9(2) 2.5(3) 1.4(2) 0.4(2) 0.2(2) -.2(2)
C2 C3+ 2.0(2) 1.8(2) 1.6(2) 0.2(2) 0.1(2) -.2(2)
N1 N3- 2.6(2) 2.6(2) 2.7(2) -.6(2) 1.0(2) -.3(2)
N2 N3- 2.6(2) 2.0(2) 2.7(2) -.3(2) 0.8(2) -.4(2)
#End of TTdata_361-ICSD
