_symmetry_space_group_name_H-M    "P 1"
_symmetry_int_tables_number 1
loop_
_symmetry_equiv_pos_as_xyz
'x, y, z'
loop_
_atom_type_symbol
_atom_type_radius_bond
C 0.68
H 0.23
Co 1.33
Nd 1.81
O 0.68
loop_
_publ_author_name
'A. Gonzalez'
'A. Beltran'
'A. le Bail'
_publ_section_title
' Structure of the decahydrated octaacetate of dineodymium(III) and cobalt(II)'
_journal_coeditor_code           PA0193
_journal_name_full               'Acta Crystallographica Section C'
_journal_page_first              1624
_journal_page_last               1627
_journal_paper_doi               10.1107/S0108270191002184
_journal_volume                  47
_journal_year                    1991
_chemical_formula_sum            'C16 H44 Co Nd2 O26'
_symmetry_cell_setting           triclinic
_symmetry_Int_Tables_number      2
_symmetry_space_group_name_Hall  '-P 1'
_symmetry_space_group_name_H-M   'P -1'
_cell_angle_alpha                111.64(1)
_cell_angle_beta                 107.94(1)
_cell_angle_gamma                93.45(1)
_cell_formula_units_Z            1
_cell_length_a                   8.243(2)
_cell_length_b                   10.368(3)
_cell_length_c                   11.497(3)
_cell_volume                     851.974
_diffrn_ambient_temperature      ?
_exptl_crystal_colour            purple
_exptl_crystal_density_diffrn    1.95
_refine_ls_R_factor_gt           0.024
_refine_ls_wR_factor_gt          0.024
_cod_depositor_comments
;
 Removing 43 symmetrically equivalent atoms:
 O1A* O -0.1104(2) 0.8680(2) 0.4334(2)
 Nd1A* Nd -0.08652(1) 1.08111(1) 0.66796(1)
 O3A* O -0.1692(2) 1.0466(2) -0.1531(1)
 O5A* O 0.0662(2) 0.8389(2) -0.1408(2)
 O7A* O 0.2041(2) 1.1639(2) 0.0437(2)
 C3A* C -0.2321(3) 0.7938(2) 0.4401(2)
 O2A* O -0.2765(3) 0.8393(2) 0.5409(2)
 O3A** O -0.1692(2) 1.0466(2) 0.8469(1)
 O4A* O -0.3817(2) 1.0831(2) 0.7013(2)
 O6A* O 0.1046(2) 0.9221(2) 0.7138(2)
 O8A* O 0.1406(3) 1.2272(2) 0.8714(2)
 O9A* O -0.2875(2) 1.1095(2) 0.4687(2)
 O11A* O -0.1131(3) 1.3334(2) 0.7388(3)
 Nd1A** Nd -0.08652(1) 1.08111(1) -0.33204(1)
 C1A* C -0.3266(2) 1.0634(2) -0.1939(2)
 C4A* C 0.1002(3) 0.8257(2) -0.2435(2)
 C2A* C 0.2295(2) 1.2432(2) -0.0125(2)
 C7A* C -0.3274(5) 0.6558(3) 0.3268(3)
 C1A** C -0.3266(2) 1.0634(2) 0.8061(2)
 C4A** C 0.1002(3) 0.8257(2) 0.7565(2)
 C2A** C 0.2295(2) 1.2432(2) 0.9875(2)
 H1A* H -0.1991(49) 1.0767(52) 0.4270(49)
 H2A* H -0.4008(33) 1.0409(43) 0.4152(46)
 H5A* H -0.0390(56) 1.4191(32) 0.8194(36)
 H6A* H -0.2211(42) 1.3588(50) 0.6907(47)
 O4A** O -0.3817(2) 1.0831(2) -0.2987(2)
 C5A* C -0.4411(3) 1.0576(4) -0.1169(3)
 O6A** O 0.1046(2) 0.9221(2) -0.2862(2)
 C8A* C 0.1363(7) 0.6850(3) -0.3215(4)
 O8A** O 0.1406(3) 1.2272(2) -0.1286(2)
 C6A* C 0.3757(4) 1.3703(3) 0.0662(3)
 H17A* H -0.2961(67) 0.6425(61) 0.2390(32)
 H18A* H -0.2674(60) 0.5865(49) 0.3702(53)
 H19A* H -0.4668(10) 0.6302(53) 0.2990(51)
 H11A* H -0.3756(64) 1.0464(52) -0.0251(27)
 H12A* H -0.5401(51) 1.1197(47) -0.1042(48)
 H13A* H -0.5008(60) 0.9540(25) -0.1971(33)
 H20A* H 0.0448(44) 0.6468(52) -0.2858(44)
 H21A* H 0.0895(55) 0.6350(55) -0.4296(5)
 H22A* H 0.2612(32) 0.6601(59) -0.2816(46)
 H14A* H 0.4444(58) 1.3882(57) 0.0056(45)
 H15A* H 0.3174(64) 1.4601(37) 0.1033(46)
 H16A* H 0.4657(52) 1.3566(56) 0.1497(31)
 Antanas Vaitkus,
 2017-08-14
;
_cod_original_formula_sum        'C16 H44 Co1 Nd2 O26'
_cod_database_code               2000000
loop_
_atom_site_label
_atom_site_type_symbol
_atom_site_fract_x
_atom_site_fract_y
_atom_site_fract_z
_atom_site_B_iso_or_equiv
C1        C         0.1002         0.8257         0.7565         1.000          
C2        C         0.1363         0.685          0.6785         1.000          
C3        C         0.2295         0.2432         0.9875         1.000          
C4        C         0.2321         0.2062         0.5599         1.000          
C5        C         0.3266         0.9366         0.1939         1.000          
C6        C         0.3274         0.3442         0.6732         1.000          
C7        C         0.3757         0.3703         0.0662         1.000          
C8        C         0.4411         0.9424         0.1169         1.000          
C9        C         0.5589         0.0576         0.8831         1.000          
C10       C         0.6243         0.6297         0.9338         1.000          
C11       C         0.6726         0.6558         0.3268         1.000          
C12       C         0.6734         0.0634         0.8061         1.000          
C13       C         0.7679         0.7938         0.4401         1.000          
C14       C         0.7705         0.7568         0.0125         1.000          
C15       C         0.8637         0.315          0.3215         1.000          
C16       C         0.8998         0.1743         0.2435         1.000          
Co1       Co        0              0              0              1.000          
Co2       Co        0              1              0              1.000          
H1        H         0.039          0.5809         0.1806         1.000          
H2        H         0.0448         0.6468         0.7142         1.000          
H3        H         0.0848         0.6363         0.0277         1.000          
H4        H         0.0895         0.635          0.5704         1.000          
H5        H         0.1026         0.6802         0.9088         1.000          
H6        H         0.1991         0.9233         0.573          1.000          
H7        H         0.2211         0.6412         0.3093         1.000          
H8        H         0.2612         0.6601         0.7184         1.000          
H9        H         0.2674         0.4135         0.6298         1.000          
H10       H         0.2912         0.2807         0.2454         1.000          
H11       H         0.2961         0.3575         0.761          1.000          
H12       H         0.3174         0.4601         0.1033         1.000          
H13       H         0.353          0.2516         0.3812         1.000          
H14       H         0.3756         0.9536         0.0251         1.000          
H15       H         0.3767         0.4899         0.3897         1.000          
H16       H         0.3767         0.6421         0.5032         1.000          
H17       H         0.4008         0.9591         0.5848         1.000          
H18       H         0.4444         0.3882         0.0056         1.000          
H19       H         0.4599         0.1197         0.8958         1.000          
H20       H         0.4657         0.3566         0.1497         1.000          
H21       H         0.4668         0.3698         0.701          1.000          
H22       H         0.4992         0.954          0.8029         1.000          
H23       H         0.5008         0.046          0.1971         1.000          
H24       H         0.5332         0.6302         0.299          1.000          
H25       H         0.5343         0.6434         0.8503         1.000          
H26       H         0.5401         0.8803         0.1042         1.000          
H27       H         0.5556         0.6118         0.9944         1.000          
H28       H         0.5992         0.0409         0.4152         1.000          
H29       H         0.6233         0.3579         0.4968         1.000          
H30       H         0.6233         0.5101         0.6103         1.000          
H31       H         0.6244         0.0464         0.9749         1.000          
H32       H         0.647          0.7484         0.6188         1.000          
H33       H         0.6826         0.5399         0.8967         1.000          
H34       H         0.7039         0.6425         0.239          1.000          
H35       H         0.7088         0.7193         0.7546         1.000          
H36       H         0.7326         0.5865         0.3702         1.000          
H37       H         0.7388         0.3399         0.2816         1.000          
H38       H         0.7789         0.3588         0.6907         1.000          
H39       H         0.8009         0.0767         0.427          1.000          
H40       H         0.8974         0.3198         0.0912         1.000          
H41       H         0.9105         0.365          0.4296         1.000          
H42       H         0.9152         0.3637         0.9723         1.000          
H43       H         0.9552         0.3532         0.2858         1.000          
H44       H         0.961          0.4191         0.8194         1.000          
Nd1       Nd        0.08652        0.91889        0.33204        1.000          
Nd2       Nd        0.91348        0.08111        0.66796        1.000          
O1        O         0.0662         0.8389         0.8592         1.000          
O2        O         0.0941         0.6002         0.9368         1.000          
O3        O         0.1046         0.9221         0.7138         1.000          
O4        O         0.1104         0.132          0.5666         1.000          
O5        O         0.1131         0.6666         0.2612         1.000          
O6        O         0.1406         0.2272         0.8714         1.000          
O7        O         0.1692         0.9534         0.1531         1.000          
O8        O         0.2041         0.1639         0.0437         1.000          
O9        O         0.2765         0.1607         0.4591         1.000          
O10       O         0.2875         0.8905         0.5313         1.000          
O11       O         0.3018         0.5562         0.423          1.000          
O12       O         0.3817         0.9169         0.2987         1.000          
O13       O         0.3925         0.2934         0.3264         1.000          
O14       O         0.6075         0.7066         0.6736         1.000          
O15       O         0.6183         0.0831         0.7013         1.000          
O16       O         0.6982         0.4438         0.577          1.000          
O17       O         0.7125         0.1095         0.4687         1.000          
O18       O         0.7235         0.8393         0.5409         1.000          
O19       O         0.7959         0.8361         0.9563         1.000          
O20       O         0.8308         0.0466         0.8469         1.000          
O21       O         0.8594         0.7728         0.1286         1.000          
O22       O         0.8869         0.3334         0.7388         1.000          
O23       O         0.8896         0.868          0.4334         1.000          
O24       O         0.8954         0.0779         0.2862         1.000          
O25       O         0.9059         0.3998         0.0632         1.000          
O26       O         0.9338         0.1611         0.1408         1.000          


#END